(set-logic QF_S)
(declare-fun A () String)
(assert (= (str.++  "bbbbaacdcaabcabddccbaddc" A "dcacbbadaadcb")  (str.++  "bbbbaacdcaabcabddccbaddccccbbccaabbbdcdccddabbdacbbbcabcabdcdbbdddbcdcacbbadaadcb" "") ))
(assert (= (str.++  "cdcaabbaacc" A "abaccbddddcccaabaabdcabcbbdccadcad")  (str.++  "cdcaabbaacc" A "abaccbddddcccaabaabdcabcbbdccadcad") ))
(assert (= (str.++  "dcadacccba" A "c")  (str.++  "dcadacccba" A "c") ))
(assert (= (str.++  "dcdbadccadabcdbaaaacdddabdccadaaccbbadbadabbcccbbdcccacaddbdccdbdabdbaacaaddcdadd" "")  (str.++  "dcdbadccad" A "cbbdcccacaddbdccdbdabdbaacaaddcdadd") ))
(assert (= (str.++  "daccacccdb" A "bcbcadacbbcadbbbddbb" A "bbcddddccadacdabbdcdcbaaaabadcabcadcbaadddbcaba")  (str.++  "daccacccdbbdbcbcadacbbcadbbbddbb" A "bbcddddccadacdab" A "cdcbaaaabadcabcadcbaadddbcaba") ))
(assert (= (str.++  "bddaaababbb" A "cbdcb" A "bcdbddbdd" A "bcbadacdaccaadcdcd" A "ddbabbabbccadbcccdccbbbbdcbcdc")  (str.++  "bddaaababbb" A "c" A "cbbdbcdbdd" A "d" A "bcbadacdaccaadcdcdbdddbabbabbccadbcccdccbbbbdcbcdc") ))
(assert (= (str.++  "ccccadccabccddcadddadddddabcdaadbacaccdcddddaaccac" A "dadbcaacddcdbbcdcaccdbdddadcb")  (str.++  "ccccadccabccddcadddadddddabcdaadbacaccdcddddaaccac" A "dadbcaacddcdbbcdcaccd" A "ddadcb") ))
(assert (= (str.++  "bbdadcbbcccabaabbaaccdbbbbcccaaadbdccacbcbbacdcaddadacabcbaddbaacacbbccdbacadc" A "d")  (str.++  "bbdadcbbcccabaabbaaccdbbbbcccaaadbdccacbcbbacdcaddadacabcbaddbaacacbbccdbacadcbdd" "") ))
(assert (= (str.++  "caabcccacccdcabcacdbccbbd" A "dccbcbcddbd" A "a" A "aadadbcadcabaaadbcaccccdbadbbbdccdcacc")  (str.++  "caabcccacccdcabcacdbccb" A "bddccbcbcddbd" A "a" A "aadadbcadcabaaadbcaccccdbadbbbdccdcacc") ))
(assert (= (str.++  "cdaabaaaaccabaaaddcbaccccaabdd" A "aadcadadbadcaaabadcddcbbdccadbccdacacaccccbbacaab")  (str.++  "cdaabaaaaccabaaaddcbaccccaa" A "d" A "aadcadadbadcaaabadcddcbbdccadbccdacacaccccbbacaab") ))
(assert (= (str.++  "baaadacddcccccaabddddbddabbbadaddbcabbdabcb" A "abcabbcccdadabdcdcaccadddcbbcddabacd")  (str.++  "baaadacddcccccaa" A "ddd" A "dabbbadaddbcab" A "abcb" A "abcabbcccdadabdcdcaccadddcbbcddabacd") ))
(assert (= (str.++  "aaaadbbcdbdbb" A "bbadda" A "daddcac" A "ccaaaccd" A "bcadcaaccacacbbaccbaabccc" A "ccadbbbcbbcd")  (str.++  "aaaadbbcdbdbbbdbbaddabddaddcacbdccaaaccd" A "bcadcaaccacacbbaccbaabcccbdccadbbbcbbcd") ))
(assert (= (str.++  "adabbcaaac" A "bcadcbbcdcacbbbcadadbbcaccaccbcbcc" A "abbbbcbcca" A "accdcccdadaccaabcddab")  (str.++  "adabbcaaacbdbcadcbbcdcacbbbcadadbbcaccaccbcbcc" A "abbbbcbcca" A "accdcccdadaccaabcddab") ))
(assert (= (str.++  "cacddccdaabbadadaccadadcdddaacccdcbadabccbbddaaabdcbcdadbabbaccdbccdcabaddbcb" A "cc")  (str.++  "cacddccdaabbadadaccadadcdddaacccdcbadabccb" A "daaa" A "cbcdadbabbaccdbccdcabaddbcb" A "cc") ))
(assert (= (str.++  "bbcdaaaacaddbcddadcadbadacabccdbabdddbcdc" A "cacbbdcdbbaadccdbbaadcbabcbbbbccbaddcc")  (str.++  "bbcdaaaacaddbcddadcadbadacabccdba" A "ddbcdc" A "cacbbdcdbbaadccdbbaadcbabcbbbbccbaddcc") ))
(assert (= (str.++  "cbcbcdd" A A "acaaccacbbacbcdcdcccdaabaaacaadaaaaccdadcdddbacdcaabbaaacdbccdbdaaacda")  (str.++  "cbcbcddbd" A "acaaccacbbacbcdcdcccdaabaaacaadaaaaccdadcdddbacdcaabbaaacdbccdbdaaacda") ))
(assert (= (str.++  "aaaccbbbcdcddbdaacbacadc" A "bddcbcccccdaaadcdaabcbcabadcbbbbaadbcbbadbcdabdaddbab" A)  (str.++  "aaaccbbbcdcddbdaacbacadcbd" A "dcbcccccdaaadcdaabcbcabadcbbbbaadbcbbadbcda" A "addbab" A) ))
(assert (= (str.++  "a" A "adaabbacaaddcaaccbdbdaccccb" A "abb" A "cdac" A "bb" A "aacbacbccbcdcacacddddbdddbcdbabadd")  (str.++  "abdadaabbacaaddcaacc" A "bdaccccbbdabbbdcdacbdbbbdaacbacbccbcdcacacddddbdddbcdbabadd") ))
(assert (= (str.++  "bcdac" A "dabcbbbababacbcdbbabacbabcacbccbcaaabbddaabadaaaddbbccdcdcacbcbbacbdaab" A "c")  (str.++  "bcdacbddabcbbbababacbcdbbabacbabcacbccbcaaabbddaabadaaaddbbccdcdcacbcbbacbdaabbdc" "") ))
(assert (= (str.++  "dcccc" A "dcddd" A "abbbdcbdbdddccbcddbbcdccddaaadabccbdbbcadaacccaccadcdcbcccbbbadddbc")  (str.++  "dccccbddcddd" A "abb" A "c" A "bdddccbcddbbcdccddaaadabccbdbbcadaacccaccadcdcbcccbbbadddbc") ))
(assert (= (str.++  "dbccbadacacccdccdddcdbbbabbadcabbdacaaccaddadaacaddcdacbbbbcbbbcdcdabbcdcbbdbcaca" "")  (str.++  "dbccbadacacccdccdddcdbbbabbadcab" A "acaaccaddadaacaddcdacbbbbcbbbcdcdabbcdcb" A "bcaca") ))
(assert (= (str.++  "ddbdcdcaadabacddcdbbdabcbbaacadbaa" A "ada" A "dadadbdaccadaacaacc" A A "adbcaccdbabdbaaaa")  (str.++  "dd" A "cdcaadabacddcdbbdabcbbaacadbaa" A "adabddadadbdaccadaacaacc" A "bdadbcaccdba" A "baaaa") ))
(assert (= (str.++  "bacdacbadadcb" A "acbacabdddcbc" A "ddcacdaadaaacdcbbdbbdaacbcdaab" A "d" A "cddcadbbdbcbcaac")  (str.++  "bacdacbadadcbbdacbacabdddcbc" A "ddcacdaadaaacdcb" A "bbdaacbcdaab" A "dbdcddcadb" A "bcbcaac") ))
(assert (= (str.++  "bdcbcaca" A "adcdbcacacdaadbacbcddcbdcaddbcbbbbdcaadbbdd" A "badccccbccaaddaadbcdc" A "bbc")  (str.++  "bdcbcacabdadcdbcacacdaadbacbcddc" A "caddbcbbbbdcaadb" A "dbdbadccccbccaaddaadbcdcbdbbc") ))
(assert (= (str.++  "cbaabbadacdcbbabadaccbacabbdbadcbccbbaada" A "daaaddaaaadadcabadbbdadbaaaccbb" A "c" A "aa")  (str.++  "cbaabbadacdcbbabadaccbacab" A "badcbccbbaada" A "daaaddaaaadadcabadbbdadbaaaccbbbdcbdaa") ))
(assert (= (str.++  "cccabccddadd" A "caddd" A "aadccaabbdbabbbad" A "adbcbaadbbaadcddaaacab" A "cbcadaadbcbdaccad")  (str.++  "cccabccddaddbdcadddbdaadccaabbdbabbbad" A "adbcbaadbbaadcddaaacabbdcbcadaadbc" A "accad") ))
(assert (= (str.++  "caddccbacca" A "a" A "cbcbabbad" A "ccaaddaaabbcaaddbcbddb" A "bbccbbbddcadbbcdcccaaddbcbcb" A)  (str.++  "caddccbacca" A "a" A "cbcbabbadbdccaaddaaabbcaaddbc" A "dbbdbbccbbbddcadbbcdcccaaddbcbcb" A) ))
(assert (= (str.++  "bdaddadbb" A "acd" A "baaacacdbcddbcabccacdddaadaccccb" A "bdadbbbcd" A "cbdd" A "abbbabcdcbabca")  (str.++  "bdaddadbbbdacd" A "baaacacdbcddbcabccacdddaadaccccbbd" A "adbbbcdbdc" A "dbdabbbabcdcbabca") ))
(assert (= (str.++  "bbadbddcab" A "adccdaabadadddadbbcabddbadaaacdbbaabbdcbbbcbaaddcbbcaacdccdc" A "dbdcbab")  (str.++  "bbadbddcabbdadccdaabadadddadbbca" A "dbadaaacdbbaab" A "cbbbcbaaddcbbcaacdccdcbddbdcbab") ))
(assert (= (str.++  "adaddbabaacaacadddbadcccdacbdaadbdddddcaacdcdacaaddcbadaabaaaccbcdcacbdddbabacbcc" "")  (str.++  "adaddbabaacaacadddbadcccdacbdaad" A "ddddcaacdcdacaaddcbadaabaaaccbcdcac" A "ddbabacbcc") ))
(assert (= (str.++  "bccddcddcaaabddbdbdacdaaccadcddbaabccddcccaccadcdbaaaacaaacdcaadcdcdbaabbdacacddd" "")  (str.++  "bccddcddcaaabddbd" A "acdaaccadcddbaabccddcccaccadcdbaaaacaaacdcaadcdcdbaab" A "acacddd") ))
(assert (= (str.++  "bdcabadcbcbdcdcacaaababcdabccdbcbcabcddadaacadabcddbbaabb" A "ccdabcaaacdaaaacdbaadc")  (str.++  "bdcabadcbc" A "cdcacaaababcdabccdbcbcabcddadaacadabcddbbaabb" A "ccdabcaaacdaaaacdbaadc") ))
(assert (= (str.++  "acaddaaaddcadbaaabbbbababba" A "aabbbacbccbcdbdadcdddcb" A "a" A "cdbbcacdcdaabc" A "bdbadcca")  (str.++  "acaddaaaddcadbaaabbbbababbabdaabbbacbccbcd" A "adcdddcb" A "a" A "cdbbcacdcdaabcbd" A "badcca") ))
(assert (= (str.++  "badbaac" A "bcbbcccdadaccdccdbccabdbcbccb" A "daabbbcccdcdcdcddbaba" A "babc" A "addbbabd" A "cc")  (str.++  "badbaac" A "bcbbcccdadaccdccdbcca" A "bcbccb" A "daabbbcccdcdcdcddbaba" A "babcbdaddbbabd" A "cc") ))
(assert (= (str.++  "bcbdbbcaadacdcdaddbcdaacdbbaaaaabddadaaaadddaabacddbbab" A "ddaddabadcdacdaabcbcccdb")  (str.++  "bc" A "bbcaadacdcdaddbcdaacdbbaaaaabddadaaaadddaabacddbbab" A "ddaddabadcdacdaabcbcccdb") ))
(assert (= (str.++  "cb" A "cacdbdcabaabcaccaadbaab" A "baccbccaaaaddabacbacccba" A "dcabaabacdbcddcdcaadcad" A "b")  (str.++  "cb" A "cacdbdcabaabcaccaadbaabbdbaccbccaaaaddabacbacccbabddcabaabacdbcddcdcaadcad" A "b") ))
(assert (= (str.++  "cbcaddddd" A "bcbbdbdbabdacddaaadcbaadbab" A "daa" A "ddcdaa" A "accdcadacacacaddbbacccadadac")  (str.++  "cbcaddddd" A "bcbbd" A "ba" A "acddaaadcbaadbab" A "daa" A "ddcdaabdaccdcadacacacaddbbacccadadac") ))
(assert (= (str.++  "dddddabadababad" A "ad" A "ddacdabbcdab" A "cddabbaabbdadadacbaadb" A "dadcbbc" A "cabcbacadcaca")  (str.++  "dddddabadababadbdadbdddacdabbcdabbdcddabbaabbdadadacbaadbbddadcbbc" A "cabcbacadcaca") ))
(assert (= (str.++  "dcdaadbbadbbababaccabb" A "dbaacadcbbcacccdcbcdbbcdaaaacacacd" A "adadad" A "ccb" A "aaccdacd")  (str.++  "dcdaadbbadbbababaccabb" A "dbaacadcbbcacccdcbcdbbcdaaaacacacd" A "adadadbdccbbdaaccdacd") ))
(assert (= (str.++  "aaddb" A "bbccdbabaacaabadaaaaadbdbb" A "dcbdddaac" A "ccabbcbbbcda" A "aacabcbcabacabad" A "bbc")  (str.++  "aaddb" A "bbccdbabaacaabadaaaaad" A "bb" A "dcbdddaacbdccabbcbbbcdabdaacabcbcabacabad" A "bbc") ))
(assert (= (str.++  "bcbacbdbdccaabbadcab" A "bb" A "abdadcdbbac" A "ca" A "dddbacdbaacbbcdddbddaddcbacadbadcabcad")  (str.++  "bcbacbdbdccaabbadcabbdbbbdabdadcdbbac" A "ca" A "dddbacdbaacbbcdddbddaddcbacadbadcabcad") ))
(assert (= (str.++  "baaddbdbdadadaccdadccaadaabacdaaaaaaccbcccbab" A "da" A "badadcaccdbcdcdddbcddcdabccada")  (str.++  "baaddbd" A "adadaccdadccaadaabacdaaaaaaccbcccbabbdda" A "badadcaccdbcdcdddbcddcdabccada") ))
(assert (= (str.++  "cb" A "bcacdaaadcacdddab" A "cddbaddbcccdbadcdbaddbabacaca" A "ddcabcbbba" A "ddabcbbcacddb" A)  (str.++  "cb" A "bcacdaaadcacdddabbdcddbaddbcccdbadcdbaddbabacacabdddcabcbbba" A "ddabcbbcacddb" A) ))
(assert (= (str.++  "bcc" A "aabccabbbaa" A "baadacdddddbaaadab" A "bcadbadbccbdddcccadacbcddccddd" A "dcbccdbddcd")  (str.++  "bccbdaabccabbbaabdbaadacdddddbaaadab" A "bcadbadbccbdddcccadacbcddccdddbddcbccdbddcd") ))
(assert (= (str.++  "dabbabcbcbdbadbaaaddcbdc" A "dacdcbcadaababacadcaadc" A "dabaaba" A "ddacaacbabcbaabbac" A "a")  (str.++  "dabbabcbcbdbadbaaaddc" A "cbddacdcbcadaababacadcaadc" A "dabaababdddacaacbabcbaabbac" A "a") ))
(assert (= (str.++  "addbbaacacdadaddacaddbbbbbbbccdcbaaccbbaddcbdccabcdadcccbdabccbcdcccbbcbadadddaba" "")  (str.++  "addbbaacacdadaddacaddbbbbbbbccdcbaaccbbaddcbdccabcdadccc" A "abccbcdcccbbcbadadddaba") ))
(assert (= (str.++  "aacabcccbbbdbbadabbccaddbcabadbaadcadacacaacddc" A "cababcbbabdccabacaddcbabcbbcddca")  (str.++  "aacabcccbbbdbbadabbccaddbcabadbaadcadacacaacddc" A "cababcbba" A "ccabacaddcbabcbbcddca") ))
(assert (= (str.++  "bcaacdbdd" A "dd" A "adbaabcbcddddba" A "ddcdaccddcaaaddaadacdcdbadccadcbccaacddaa" A "cdabbb")  (str.++  "bcaacd" A "dbdddbdadbaabcbcddddbabdddcdaccddcaaaddaadacdcdbadccadcbccaacddaa" A "cdabbb") ))
(assert (= (str.++  "ddaddcddcddbb" A "bdabd" A "ddcacbbabdddadbdcabdbcbcbabbacd" A "acbbbaacdbdddc" A "ccdbabccda")  (str.++  "ddaddcddcddbb" A "bda" A "bdddcacbbabdddadbdca" A "bcbcbabbacdbdacbbbaacdbdddcbdccdbabccda") ))
(assert (= (str.++  "ddcdbaccccabcaccaaabaab" A "dcbbaabaacbcccdbbadbcbdac" A "cdacdddbcdccbadcbadadccabcaca")  (str.++  "ddcdbaccccabcaccaaabaabbddcbbaabaacbcccdbbadbcbdac" A "cdacdddbcdccbadcbadadccabcaca") ))
(assert (= (str.++  "dcabaacaddccaabbcdcacdacacadacbcad" A "ccbacddbcadcdacccadaaadaccdaabadbdabaccbcabbb")  (str.++  "dcabaacaddccaabbcdcacdacacadacbcad" A "ccbacddbcadcdacccadaaadaccdaabadbdabaccbcabbb") ))
(assert (= (str.++  "db" A "ccababdcdcbbbbdaadddbadbccaadaa" A "bdcbacddacdabcdbcabaabdacbbcdcaaabdbaaadaabb")  (str.++  "dbbdccaba" A "cdcbbb" A "aadddbadbccaadaabd" A "cbacddacdabcdbcabaa" A "acbbcdcaaa" A "baaadaabb") ))
(assert (= (str.++  "cbcbbaabaabadacabdddacaccaaabcaabbbcaabccdcaddaacccbcabbbabbbdabadacaadcbababacbc" "")  (str.++  "cbcbbaabaabadaca" A "ddacaccaaabcaabbbcaabccdcaddaacccbcabbbabbbdabadacaadcbababacbc") ))
(assert (= (str.++  A "daacddbbbcbddaad" A "ddcabadaccccbbdbccbbbdabadcadaacadccdccaaadabcaadcacaaadbbcbd")  (str.++  "bddaacddbbbcbddaadbdddcabadaccccbbdbccbbbdabadcadaacadccdccaaadabcaadcacaaadbbc" A) ))
(assert (= (str.++  "adacdbaacadaabaabbdadddabcdddcddccbbacdabacdcdbcbdddaada" A "bbadbbcadbacdacbabbdadc")  (str.++  "adacdbaacadaabaab" A "adddabcdddcddccbbacdabacdcdbc" A "ddaadabdbbadbbcadbacdacbab" A "adc") ))
(assert (= (str.++  A "dbad" A "dadbcaadccdbbbaacbcadbbaacadbccdcaacd" A "bdaaabbbccdacaddcdd" A "bdddccdddadcd")  (str.++  "bddbadbddadbcaadccdbbbaacbcadbbaacadbccdcaacd" A A "aaabbbccdacaddcddbd" A "ddccdddadcd") ))
(assert (= (str.++  "dbcdccdddbac" A "dbbacaddddaba" A "daaaaabbadacaddabcdadaabbccaac" A "dacbdcadbcacdaabcbac")  (str.++  "dbcdccdddbacbddbbacaddddababddaaaaabbadacaddabcdadaabbccaacbddacbdcadbcacdaabcbac" "") ))
(assert (= (str.++  "cdabdcbcacacbabadabcacbc" A "dbabdbbcdbabcaadcc" A "caddabbdcbacadcdaabdadadbcbaacaddcb")  (str.++  "cdabdcbcacacbabadabcacbcbddbabdbbcdbabcaadccbdcaddab" A "cbacadcdaa" A "adadbcbaacaddcb") ))
(assert (= (str.++  "dadaabdddbaddccababbccaccacdcbaabcddababacdcdbacababbcbaab" A "caac" A "caccabbdadcdccd")  (str.++  "dadaabdddbaddccababbccaccacdcbaabcddababacdcdbacababbcbaab" A "caacbdcaccab" A "adcdccd") ))
(assert (= (str.++  "acabbdbcacd" A "baabddbcabccdabddabaccdccadcbacaccabaccaddbcdbcbaddacbbbbbabcaaaca" A)  (str.++  "acabbdbcacdbdbaabddbcabccdabddabaccdccadcbacaccabaccaddbcdbcbaddacbbbbbabcaaaca" A) ))
(assert (= (str.++  "dcbaccaccadccdaccdbababaadcdcdccbadcacacccbcbbca" A "bbaadccddbadcdaddbbacccbccddcda")  (str.++  "dcbaccaccadccdaccdbababaadcdcdccbadcacacccbcbbca" A "bbaadccddbadcdaddbbacccbccddcda") ))
(assert (= (str.++  "bcccada" A "cddababadcacbdcbcbbbdabcbadcbabaaddccbcdcabbadaabbbacdccadaacdbcbaccadba")  (str.++  "bcccada" A "cddababadcacbdcbcbb" A "abcbadcbabaaddccbcdcabbadaabbbacdccadaacdbcbaccadba") ))
(assert (= (str.++  "ccbabcdccaddabcdacccdcccbcbabaaaadbccddbcbcbadaacadbdacd" A "c" A "bccdaaddcadadabcdccd")  (str.++  "ccbabcdccaddabcdacccdcccbcbabaaaadbccddbcbcbadaacad" A "acd" A "c" A "bccdaaddcadadabcdccd") ))
(assert (= (str.++  "ccbddaccbcbabcccbcc" A "bcbbbcbcdaaacbbdcbaaaabacdbcbabcdaabcdcdbaaba" A "dbcddaaabacda")  (str.++  "cc" A "daccbcbabcccbcc" A "bcbbbcbcdaaacb" A "cbaaaabacdbcbabcdaabcdcdbaababddbcddaaabacda") ))
(assert (= (str.++  "aaadadddbbbadbabadbcbcccdadaaadadcdbbacccbbdaddabbbdacbac" A "bbcbab" A "cdcdcacbcbdcba")  (str.++  "aaadadddbbbadbabadbcbcccdadaaadadcdbbacccb" A "addabb" A "acbac" A "bbcbab" A "cdcdcacbcbdcba") ))
(assert (= (str.++  "aacbdaacdabcdddbbaaddaadabacdaaaddba" A "c" A "ccbdaaaabcbbdbbc" A "bcdbdab" A "adbabb" A "cbbab")  (str.++  "aac" A "aacdabcdddbbaaddaadabacdaaaddbabdc" A "ccbdaaaabcbbdbbc" A "bcdbdab" A "adbabb" A "cbbab") ))
(assert (= (str.++  "cddb" A "acaabccaababdaaccdcbacccbabdbbdabdcdbdababbbdcbddbddcb" A "bccccacdbbcdaadbacc")  (str.++  "cddb" A "acaabccaaba" A "aaccdcbacccbabdb" A "a" A "cdbdababbbdcbddbddcb" A "bccccacdbbcdaadbacc") ))
(assert (= (str.++  "aadadcdccbbadabadccbddabccdabbcacacbacbadabdbcacbbcbbadadcdcbcccbdbbcacbcdcdacacd" "")  (str.++  "aadadcdccbbadabadcc" A "dabccdabbcacacbacbadabdbcacbbcbbadadcdcbcccbdbbcacbcdcdacacd") ))
(assert (= (str.++  "cabdccbbccccaacbbbadabacacbcbabdcbaabcccbc" A "cbccabcdcaaddbccdcbcacbaddaacbccbcadd")  (str.++  "ca" A "ccbbccccaacbbbadabacacbcbabdcbaabcccbc" A "cbccabcdcaaddbccdcbcacbaddaacbccbcadd") ))
(assert (= (str.++  "dbadadbbababbabddbabddbacdaccbddbbcbadbabadcc" A "cdabbacadcdbacabcdcdacababddacdbab")  (str.++  "dbadadbbababba" A "dba" A "dbacdaccbddbbcbadbabadccbdcdabbacadcdbacabcdcdacababddacdbab") ))
(assert (= (str.++  "bcbacbdddadadccaadd" A "ddcdcadadbcbdcbacacddddaddcbaabaddcd" A "bbcddbcbdacdbadcb" A "bdc")  (str.++  "bcbacbdddadadccaaddbdddcdcadadbcbdcbacacddddaddcbaabaddcd" A "bbcddbcbdacdbadcb" A A "c") ))
(assert (= (str.++  "cbdbcbaaacadc" A "cdbdcccdabbcbacbddaadbdaddbaccabccabadcdddbcbadddacccdbdcdbaca" A "bc")  (str.++  "cbdbcbaaacadcbdcd" A "cccdabbcbacbddaadbdaddbaccabccabadcdddbcbadddacccd" A "cdbacabdbc") ))
(assert (= (str.++  "caadbadbadbbdddcdcccabdcdbbccdcbacadbcc" A "adccdabbbbdabbbaaaaccdcdbdbbbdcbdadbcccb")  (str.++  "caadbadbadbbdddcdcccabdcdbbccdcbacadbccbdadccdabbbbdabbbaaaaccdcd" A "bbbdcbdadbcccb") ))
(assert (= (str.++  "cacadbbdac" A "cbabdb" A "bcdabcdabbcbaddababba" A "cdcbacbabadcbdcadddbb" A "ccadacdddadddba")  (str.++  "cacadbbdac" A "cbabdbbdbcdabcdabbcbaddababbabdcdcbacbabadcbdcadddbb" A "ccadacdddadddba") ))
(assert (= (str.++  "cabaaaccbcddccb" A A "adbaaadbcdaadcdbbbaccbbaaadbacdccabdaa" A "cd" A "caddddcdaddbaabcac")  (str.++  "cabaaaccbcddccb" A A "adbaaadbcdaadcdbbbaccbbaaadbacdcca" A "aabdcd" A "caddddcdaddbaabcac") ))
(assert (= (str.++  "ddcaaacdacbbcabbcdbadaaacbccbcdd" A "bbbcaddcdccdb" A "ccbcbbbcbdbaccadccddccbbaaaaadcb")  (str.++  "ddcaaacdacbbcabbcdbadaaacbccbcdd" A "bbbcaddcdccdb" A "ccbcbbbc" A "baccadccddccbbaaaaadcb") ))
(assert (= (str.++  "ababbacaadcdacadaadcccacabbcaaccbcddaaddbdbdaaacbaddbcaacbabadabccabcaadadbccdcaa" "")  (str.++  "ababbacaadcdacadaadcccacabbcaaccbcddaadd" A "bdaaacbaddbcaacbabadabccabcaadadbccdcaa") ))
(assert (= (str.++  "aaabbbcdcbcddcbdbdbcdabbababcbacccdaaaabcbaacdcca" A "dbccdadccbbabd" A "dbddcc" A "dadcda")  (str.++  "aaabbbcdcbcddc" A "bdbcdabbababcbacccdaaaabcbaacdcca" A "dbccdadccbba" A "bddbddcc" A "dadcda") ))
(assert (= (str.++  "badbbbacaacddcabcddaa" A "cdabaaccddabcababbdabcdccddacbcacbaaacaabaacaccdaadcaddbab")  (str.++  "badbbbacaacddcabcddaa" A "cdabaaccddabcababbdabcdccddacbcacbaaacaabaacaccdaadcaddbab") ))
(assert (= (str.++  "bbcbcddb" A "cadddbcbababbccbaad" A "dacdacccbabcacccc" A "ccabccadbaccddddabbbbbabccbccab")  (str.++  "bbcbcddb" A "cadddbcbababbccbaadbddacdacccbabcaccccbdccabccadbaccddddabbbbbabccbccab") ))
(assert (= (str.++  "b" A "dccbbcbbabccaa" A "dadabcccadababacccacccaadddbaacccaacabacababccbbbccdbbadccddba")  (str.++  "bbddccbbcbbabccaa" A "dadabcccadababacccacccaadddbaacccaacabacababccbbbccdbbadccddba") ))
(assert (= (str.++  "babbcdb" A "bcdcbbbbaccccccadbcddbddbcdddcbadaadcbdbcacd" A "ddcaadacdcbdbbcbaab" A "cacab")  (str.++  "babbcdb" A "bcdcbbbbaccccccadbcddbddbcdddcbadaadcbdbcacd" A "ddcaadacdc" A "bbcbaabbdcacab") ))
(assert (= (str.++  "acaaaddccbabdcacbabcad" A "dbbc" A "bccdbbcdbcacdbcdbccbcccddcaaabbacbaaddaabaacbcbaddd")  (str.++  "acaaaddccba" A "cacbabcadbddbbcbdbccdbbcdbcacdbcdbccbcccddcaaabbacbaaddaabaacbcbaddd") ))
(assert (= (str.++  "dcdd" A "dbacaddbccbdcdcbbccbadaddaabcaccdaaacbba" A "baddcd" A "babcbacdcadcaabcddddcccbd")  (str.++  "dcdd" A "dbacaddbccbdcdcbbccbadaddaabcaccdaaacbbabdbaddcdbdbabcbacdcadcaabcddddcccbd") ))
(assert (= (str.++  "bcaacaabbbadcdaabdaaadbacbaaaabbacdbcaccdcacadadadddc" A "baaaabccacbadbdbad" A "bdabba")  (str.++  "bcaacaabbbadcdaabdaaadbacbaaaabbacdbcaccdcacadadadddcbdbaaaabccacbadbdbadbdbdabba" "") ))
(assert (= (str.++  "bcdcbbbacabacadadcdbabbddccbbd" A "ddcdaacbadabbdacdbdaaabcbbbcddabbbacbcdbadcacccdd")  (str.++  "bcdcbbbacabacadadcdbabbddccb" A A "ddcdaacbadab" A "acd" A "aaabcbbbcddabbbacbcdbadcacccdd") ))
(assert (= (str.++  "abcaab" A "cdcadbbbadbaacacdbbacbcccdcbcaaaaddbabaaccddddbcdadbdbaaddbcacbbbcbddaadc")  (str.++  "abcaabbdcdcadbbbadbaacacdbbacbcccdcbcaaaaddbabaaccddddbcdadbdbaaddbcacbbbc" A "daadc") ))
(assert (= (str.++  "abdcdccdccbbaddcdadbcdbdbcacbcbabdcaaccccbcdcccacdcdd" A "d" A "bcadbaddd" A "bbcccddbbbac")  (str.++  "abdcdccdccbbaddcdadbcdbdbcacbcba" A "caaccccbcdcccacdcddbddbdbcadbadddbdbbcccddbbbac") ))
(assert (= (str.++  "bdd" A "acbacdcbdbcbbadcbcdabacaccbccdcbbccdddbacdabadbdabdacdddadcabcdbdcdbacadddbc")  (str.++  A "dbdacbacdcbdbcbbadcbcdabacaccbccdcbbccdddbacdabad" A "a" A "acdddadcabcdbdcdbacadddbc") ))
(assert (= (str.++  A "aabcabaad" A "aaaccc" A "abddcaaccdaadccadbccbaacbabadbdaa" A "bbbcacdccaaadbabcbadcdbbb")  (str.++  "bdaabcabaad" A "aaacccbdabddcaaccdaadccadbccbaacbabad" A "aabdbbbcacdccaaadbabcbadcdbbb") ))
(assert (= (str.++  "ddaaaaadccccbaacbaddacadbb" A "aaccdcabdacacdccdcbbccdababbacdcabcaaac" A "dbcddabbbbbb")  (str.++  "ddaaaaadccccbaacbaddacadbb" A "aaccdcabdacacdccdcbbccdababbacdcabcaaac" A "dbcddabbbbbb") ))
(assert (= (str.++  "dacbdbcbbbcc" A "accdbbcca" A "cbdbacacccaaaaabacccbbccbacbccdcacbbbccbabbddbdabacbabaa")  (str.++  "dac" A "bcbbbccbdaccdbbccabdcbdbacacccaaaaabacccbbccbacbccdcacbbbccbabbddbdabacbabaa") ))
(assert (= (str.++  "addbccccacbcaabddb" A "adddbbcbcaadbcbc" A "bdcc" A "bcbcdcaccdba" A "dcacbacaaddbbbbabdd" A "dc")  (str.++  "addbccccacbcaabddbbdadddbbcbcaadbcbcbdbdcc" A "bcbcdcaccdba" A "dcacbacaaddbbbba" A "dbddc") ))
(assert (= (str.++  "ccacccbbadb" A "adacdbacdbccdbccdb" A "cbcaadaccdbcdddbcc" A "bccdbadaacabbddaaddbaddabcab")  (str.++  "ccacccbbadbbdadacdbacdbccdbccdb" A "cbcaadaccdbcdddbcc" A "bccdbadaacab" A "daaddbaddabcab") ))
(assert (= (str.++  "cdbcdcaaadadddbadcb" A "bbacdadcaad" A "bbbadbcbbccdbddda" A A "bcddcabbaabaccddbcbadacbcc")  (str.++  "cdbcdcaaadadddbadcbbdbbacdadcaadbdbbbadbcbbccd" A "dda" A A "bcddcabbaabaccddbcbadacbcc") ))
(assert (= (str.++  "dcaadbcbbbcb" A "bccdabadbcdabbbcdbacbbbbabddddbaadadddcbcdaacbabbddbaabbbacaababbca")  (str.++  "dcaadbcbbbcb" A "bccdabadbcdabbbcdbacbbbbabddddbaadadddcbcdaacbabbddbaabbbacaababbca") ))
(assert (= (str.++  "acdcdacaadbabbacba" A "adcacab" A "cdadcaabcddbbbaabbabaadadcdadad" A "abbadcaacaccddaabba")  (str.++  "acdcdacaadbabbacba" A "adcacab" A "cdadcaabcddbbbaabbabaadadcdadadbdabbadcaacaccddaabba") ))
(assert (= (str.++  "dbcdcdca" A "ccbbbdacacdccddaadadbacbbcadbbcacaac" A "badcbacabcd" A "cdabcadddbdadcdcbcda")  (str.++  "dbcdcdca" A "ccbb" A "acacdccddaadadbacbbcadbbcacaac" A "badcbacabcd" A "cdabcaddd" A "adcdcbcda") ))
(assert (= (str.++  "cdbccc" A "dbbbadbcbcddddadbacacbaddbcabcbadbcddcbcababca" A "aabdaaccdcbacccaccddbbbbd")  (str.++  "cdbcccbddbbbadbcbcddddadbacacbaddbcabcbadbcddcbcababcabdaa" A "aaccdcbacccaccddbbbbd") ))
(assert (= (str.++  "d" A "acbddbcaaba" A "dbccc" A "baaacaccdcaccaaddcdbdbddbcdacaccacacccaccddaddc" A "cdcbaadcc")  (str.++  "dbdacbddbcaaba" A "dbccc" A "baaacaccdcaccaaddcdbd" A "dbcdacaccacacccaccddaddcbdcdcbaadcc") ))
(assert (= (str.++  "baabaaacaaaaaccba" A "ba" A "cdcd" A "ddc" A "cadaaccdaccbaabadcbdadabcc" A "ddbda" A "bbdabcaacccd")  (str.++  "baabaaacaaaaaccbabdbabdcdcdbdddcbdcadaaccdaccbaabadcbdadabccbddd" A "abdbbdabcaacccd") ))
(assert (= (str.++  "b" A "cbcdcda" A "bdbdadacdbaacccabaabbcbdccaadaadadddbdadbacccdadbac" A "caadbccadcbcbaab")  (str.++  "b" A "cbcdcdabdbd" A "adacdbaacccabaabbc" A "ccaadaadaddd" A "adbacccdadbac" A "caadbccadcbcbaab") ))
(check-sat)
(get-model)
